dimacs_exports/research_5vars_21clauses_seed200.cnf
c DIMACS CNF format
c Generated from: research_5vars_21clauses_seed200.md
c Batch export from 
c Generated on: 2025-07-15T10:21:56.961
c
p cnf 5 21
-3 -2 3 0
4 -3 1 0
-2 3 -3 0
5 -4 3 0
3 -4 4 0
-5 -1 2 0
2 -3 -3 0
5 -2 1 0
-4 2 -1 0
-2 2 5 0
2 3 5 0
-5 1 -1 0
3 -2 -2 0
2 -3 -2 0
-3 -3 -5 0
3 4 -4 0
-4 1 2 0
3 3 -1 0
2 2 -1 0
4 -5 -2 0
4 -3 -4 0
