research/research_5vars_21clauses_seed200.txt
4 6 3
7 8 3
7 10 1
8 9 1
4 7 1
1 9 1
2 8 1
2 10 2
3 9 2
4 5 4
1 3 1
5 9 2
1 4 1
3 4 2
4 9 2
1 8 1
1 10 1
1 2 1
2 5 2
3 8 2
3 10 1
1 6 1
5 8 3
1 7 1
3 6 3
6 8 1
6 10 2
5 6 2
4 10 1
5 7 2
2 3 4
3 5 1
6 7 2